Tried aggregator 1 time.
MIP Presolve eliminated 2725 rows and 1371 columns.
MIP Presolve modified 572980 coefficients.
Reduced MIP has 4371 rows, 5379 columns, and 642590 nonzeros.
Reduced MIP has 5379 binaries, 0 generals, 0 SOSs, and 0 indicators.
Presolve time = 4,46 sec. (5043,49 ticks)
Probing time = 0,04 sec. (21,84 ticks)
Tried aggregator 1 time.
MIP Presolve eliminated 1256 rows and 0 columns.
MIP Presolve modified 64761 coefficients.
Reduced MIP has 3115 rows, 5379 columns, and 521375 nonzeros.
Reduced MIP has 5379 binaries, 0 generals, 0 SOSs, and 0 indicators.
Presolve time = 1,63 sec. (1538,92 ticks)
Probing time = 0,04 sec. (18,79 ticks)
Clique table members: 12863.
MIP emphasis: balance optimality and feasibility.
MIP search method: dynamic search.
Parallel mode: deterministic, using up to 8 threads.
Root relaxation solution time = 0,93 sec. (496,71 ticks)

        Nodes                                         Cuts/
   Node  Left     Objective  IInf  Best Integer    Best Bound    ItCnt     Gap

*     0+    0                          279,0000        0,0000           100,00%
      0     0      174,8597   129      279,0000      174,8597     2175   37,33%
*     0+    0                          196,0000      174,8597            10,79%
      0     0      183,3968   114      196,0000     Cuts: 159     2851    6,43%
      0     0      185,1065   122      196,0000      Cuts: 73     3188    5,56%
*     0+    0                          193,0000      185,1065             4,09%

Repeating presolve.
Tried aggregator 1 time.
MIP Presolve eliminated 2386 rows and 3774 columns.
MIP Presolve modified 32582 coefficients.
Reduced MIP has 727 rows, 1605 columns, and 63940 nonzeros.
Reduced MIP has 1605 binaries, 0 generals, 0 SOSs, and 0 indicators.
Presolve time = 0,33 sec. (355,68 ticks)
Probing time = 0,01 sec. (7,06 ticks)
Tried aggregator 1 time.
MIP Presolve eliminated 8 rows and 0 columns.
MIP Presolve modified 380 coefficients.
Reduced MIP has 719 rows, 1605 columns, and 63555 nonzeros.
Reduced MIP has 1605 binaries, 0 generals, 0 SOSs, and 0 indicators.
Presolve time = 0,10 sec. (75,64 ticks)
Represolve time = 0,52 sec. (478,92 ticks)
Probing time = 0,01 sec. (7,00 ticks)
Clique table members: 2647.
MIP emphasis: balance optimality and feasibility.
MIP search method: dynamic search.
Parallel mode: deterministic, using up to 8 threads.
Root relaxation solution time = 0,15 sec. (104,52 ticks)

        Nodes                                         Cuts/
   Node  Left     Objective  IInf  Best Integer    Best Bound    ItCnt     Gap

*     0+    0                          193,0000      185,1065             4,09%
      0     0      185,4529   106      193,0000      185,4529     4125    3,91%
*     0+    0                          191,0000      185,4529             2,90%
      0     0      186,2516    83      191,0000      Cuts: 31     4238    2,49%
      0     0      186,5000    66      191,0000      Cuts: 18     4289    2,36%
*     0+    0                          190,0000      186,5000             1,84%

Repeating presolve.
Tried aggregator 1 time.
MIP Presolve eliminated 229 rows and 746 columns.
MIP Presolve modified 10449 coefficients.
Reduced MIP has 489 rows, 859 columns, and 25196 nonzeros.
Reduced MIP has 859 binaries, 0 generals, 0 SOSs, and 0 indicators.
Presolve time = 0,09 sec. (78,48 ticks)
Probing time = 0,01 sec. (4,74 ticks)
Tried aggregator 1 time.
MIP Presolve eliminated 12 rows and 0 columns.
MIP Presolve modified 340 coefficients.
Reduced MIP has 477 rows, 859 columns, and 24980 nonzeros.
Reduced MIP has 859 binaries, 0 generals, 0 SOSs, and 0 indicators.
Presolve time = 0,03 sec. (21,18 ticks)
Represolve time = 0,17 sec. (123,93 ticks)
Probing time = 0,01 sec. (4,71 ticks)
Clique table members: 1390.
MIP emphasis: balance optimality and feasibility.
MIP search method: dynamic search.
Parallel mode: deterministic, using up to 8 threads.
Root relaxation solution time = 0,05 sec. (45,15 ticks)

        Nodes                                         Cuts/
   Node  Left     Objective  IInf  Best Integer    Best Bound    ItCnt     Gap

*     0+    0                          190,0000      186,5000             1,84%
      0     0      186,5000    64      190,0000      186,5000     4962    1,84%
      0     0      187,4521    91      190,0000      Cuts: 24     5144    1,34%
      0     0      188,0000    88      190,0000      Cuts: 24     5199    1,05%
      0     0      188,0028    92      190,0000      Cuts: 22     5316    1,05%
      0     0      188,2469    82      190,0000      Cuts: 27     5381    0,92%
      0     0      188,9139    92      190,0000      Cuts: 32     5499    0,57%
      0     0      189,0000    73      190,0000      Cuts: 30     5550    0,53%
      0     0        cutoff            190,0000                   5589    0,00%
Elapsed time = 16,19 sec. (14009,71 ticks, tree = 0,01 MB, solutions = 5)

GUB cover cuts applied:  43
Clique cuts applied:  36
Cover cuts applied:  6
Implied bound cuts applied:  8
Flow cuts applied:  3
Mixed integer rounding cuts applied:  36
Zero-half cuts applied:  25
Gomory fractional cuts applied:  2

Root node processing (before b&c):
  Real time             =   16,19 sec. (14010,20 ticks)
Parallel b&c, 8 threads:
  Real time             =    0,00 sec. (0,00 ticks)
  Sync time (average)   =    0,00 sec.
  Wait time (average)   =    0,00 sec.
                          ------------
Total (root+branch&cut) =   16,19 sec. (14010,20 ticks)

